words_hard_train/6828.qaiger
aag 95 16 0 1 79
2
4
8
12
16
20
24
28
54
56
60
64
68
72
76
120
190
6 3 5
10 6 9
14 10 13
18 14 17
22 18 21
26 22 25
30 26 29
32 27 28
34 31 33
36 2 5
38 9 13
40 36 38
42 40 21
44 15 16
46 45 19
48 42 46
50 48 25
52 35 51
58 54 56
62 58 60
66 62 64
70 66 68
74 70 72
78 74 77
80 75 76
82 79 81
84 67 69
86 85 71
88 19 20
90 89 23
92 87 90
94 63 65
96 95 67
98 97 46
100 93 99
102 11 12
104 103 15
106 59 61
108 107 63
110 105 108
112 96 47
114 111 113
116 55 4
118 117 7
122 121 3
124 55 5
126 122 125
128 119 127
130 7 8
132 131 11
134 55 57
136 135 59
138 133 136
140 129 139
142 104 109
144 141 143
146 132 137
148 144 147
150 114 149
152 100 151
154 86 91
156 153 155
158 23 24
160 26 49
162 159 161
164 71 73
166 165 75
168 162 167
170 157 169
172 163 166
174 171 173
176 82 175
178 52 177
180 50 28
182 176 180
184 179 183
186 83 181
188 186 174
190 184 189
i0 2 y1[0]
i1 2 y1[1]
i2 2 y1[2]
i3 2 y1[3]
i4 2 y1[4]
i5 2 y1[5]
i6 2 y1[6]
i7 2 y1[7]
i8 1 x2[1]
i9 1 x2[2]
i10 1 x2[3]
i11 1 x2[4]
i12 1 x2[5]
i13 1 x2[6]
i14 1 x2[7]
i15 1 x2[0]
o0 bv[0]
c
simplified
  >=
    subtract
      1 x2
      invert
        1
    subtract
      1
      2 y1
