words_hard_train/6828.qaiger.qdimacs
p cnf 95 238
a 32 34 36 38 60 27 28 30 0
e 1 2 3 4 5 6 7 8 9 10 11 12 13 14 15 16 17 18 19 20 21 22 23 24 25 26 29 31 33 35 37 39 40 41 42 43 44 45 46 47 48 49 50 51 52 53 54 55 56 57 58 59 61 62 63 64 65 66 67 68 69 70 71 72 73 74 75 76 77 78 79 80 81 82 83 84 85 86 87 88 89 90 91 92 93 94 95 0
1 2 3 0
-1 -3 0
-2 -3 0
-3 4 5 0
3 -5 0
-4 -5 0
-5 6 7 0
5 -7 0
-6 -7 0
-7 8 9 0
7 -9 0
-8 -9 0
-9 10 11 0
9 -11 0
-10 -11 0
-11 12 13 0
11 -13 0
-12 -13 0
-13 14 15 0
13 -15 0
-14 -15 0
13 -14 16 0
-13 -16 0
14 -16 0
15 16 17 0
-15 -17 0
-16 -17 0
-1 2 18 0
1 -18 0
-2 -18 0
4 6 19 0
-4 -19 0
-6 -19 0
-18 -19 20 0
18 -20 0
19 -20 0
-20 10 21 0
20 -21 0
-10 -21 0
7 -8 22 0
-7 -22 0
8 -22 0
22 9 23 0
-22 -23 0
-9 -23 0
-21 -23 24 0
21 -24 0
23 -24 0
-24 12 25 0
24 -25 0
-12 -25 0
17 25 26 0
-17 -26 0
-25 -26 0
-27 -28 29 0
27 -29 0
28 -29 0
-29 -30 31 0
29 -31 0
30 -31 0
-31 -32 33 0
31 -33 0
32 -33 0
-33 -34 35 0
33 -35 0
34 -35 0
-35 -36 37 0
35 -37 0
36 -37 0
-37 38 39 0
37 -39 0
-38 -39 0
37 -38 40 0
-37 -40 0
38 -40 0
39 40 41 0
-39 -41 0
-40 -41 0
33 34 42 0
-33 -42 0
-34 -42 0
42 35 43 0
-42 -43 0
-35 -43 0
9 -10 44 0
-9 -44 0
10 -44 0
44 11 45 0
-44 -45 0
-11 -45 0
43 -45 46 0
-43 -46 0
45 -46 0
31 32 47 0
-31 -47 0
-32 -47 0
47 33 48 0
-47 -48 0
-33 -48 0
48 -23 49 0
-48 -49 0
23 -49 0
46 49 50 0
-46 -50 0
-49 -50 0
5 -6 51 0
-5 -51 0
6 -51 0
51 7 52 0
-51 -52 0
-7 -52 0
29 30 53 0
-29 -53 0
-30 -53 0
53 31 54 0
-53 -54 0
-31 -54 0
52 -54 55 0
-52 -55 0
54 -55 0
-48 23 56 0
48 -56 0
-23 -56 0
55 56 57 0
-55 -57 0
-56 -57 0
27 -2 58 0
-27 -58 0
2 -58 0
58 3 59 0
-58 -59 0
-3 -59 0
60 1 61 0
-60 -61 0
-1 -61 0
27 2 62 0
-27 -62 0
-2 -62 0
-61 62 63 0
61 -63 0
-62 -63 0
59 63 64 0
-59 -64 0
-63 -64 0
3 -4 65 0
-3 -65 0
4 -65 0
65 5 66 0
-65 -66 0
-5 -66 0
27 28 67 0
-27 -67 0
-28 -67 0
67 29 68 0
-67 -68 0
-29 -68 0
66 -68 69 0
-66 -69 0
68 -69 0
64 69 70 0
-64 -70 0
-69 -70 0
-52 54 71 0
52 -71 0
-54 -71 0
70 71 72 0
-70 -72 0
-71 -72 0
-66 68 73 0
66 -73 0
-68 -73 0
-72 73 74 0
72 -74 0
-73 -74 0
-57 74 75 0
57 -75 0
-74 -75 0
-50 75 76 0
50 -76 0
-75 -76 0
-43 45 77 0
43 -77 0
-45 -77 0
76 77 78 0
-76 -78 0
-77 -78 0
11 -12 79 0
-11 -79 0
12 -79 0
-13 24 80 0
13 -80 0
-24 -80 0
79 80 81 0
-79 -81 0
-80 -81 0
35 36 82 0
-35 -82 0
-36 -82 0
82 37 83 0
-82 -83 0
-37 -83 0
-81 83 84 0
81 -84 0
-83 -84 0
78 84 85 0
-78 -85 0
-84 -85 0
81 -83 86 0
-81 -86 0
83 -86 0
85 86 87 0
-85 -87 0
-86 -87 0
-41 87 88 0
41 -88 0
-87 -88 0
-26 88 89 0
26 -89 0
-88 -89 0
-25 -14 90 0
25 -90 0
14 -90 0
-88 -90 91 0
88 -91 0
90 -91 0
89 91 92 0
-89 -92 0
-91 -92 0
41 90 93 0
-41 -93 0
-90 -93 0
-93 -87 94 0
93 -94 0
87 -94 0
-92 94 95 0
92 -95 0
-94 -95 0
95 0
